109
0 81 88 60 12 107 97 30 51 89 
64 17 45 80 100 106 7 36 20 50 
32 76 3 63 70 42 55 39 57 18 
93 67 71 38 21 86 99 27 101 8 
82 105 4 5 59 83 53 52 44 102 
29 62 72 9 28 79 77 40 108 68 
43 74 95 54 48 56 85 65 49 1 
25 34 11 23 96 37 10 22 33 13 
87 19 104 75 69 26 73 91 16 14 
84 15 6 78 24 41 94 98 35 2 
90 66 92 61 103 31 58 46 47 
